% clingo version 5.3.0
% Reading from ...rk_instances/benchmark_instance_6-1.lp ...
% Solving...
% Answer: 3
ANSWER
u_piece(36). u_piece(1). u_piece(32). u_piece(33). l_piece(8,7,14). l_piece(26,27,20). l_piece(34,35,28). num_u_pieces(4). num_l_pieces(3).
COST 4
OPTIMUM
% 
% Models         : 3
%   Optimum      : yes
% Optimization   : 4
% Calls          : 1
% Time           : 0.011s (Solving: 0.00s 1st Model: 0.00s Unsat: 0.00s)
% CPU Time       : 0.011s
